\* GDO *\
Minimize
OBJ: 488 X0 + 411 X1 + 149 X10 + 748 X100 + 423 X101 + 921 X102 + 1773 X103
 + 993 X104 + 319 X105 + 667 X106 + 390 X107 + 660 X108 + 172 X109 + 449 X11
 + 649 X110 + 343 X111 + 547 X112 + 480 X113 + 195 X114 + 288 X115 + 287 X116
 + 682 X117 + 322 X118 + 301 X119 + 73 X12 + 202 X120 + 567 X121 + 251 X122
 + 408 X123 + 277 X124 + 302 X125 + 263 X126 + 123 X127 + 169 X128 + 188 X129
 + 481 X13 + 455 X130 + 625 X131 + 656 X132 + 321 X133 + 792 X134 + 818 X135
 + 249 X136 + 262 X137 + 488 X138 + 307 X139 + 339 X14 + 339 X140 + 579 X141
 + 377 X142 + 422 X143 + 222 X144 + 344 X145 + 657 X146 + 389 X147 + 626 X148
 + 688 X149 + 86 X15 + 514 X150 + 282 X151 + 517 X152 + 397 X153 + 881 X154
 + 281 X155 + 678 X156 + 206 X157 + 778 X158 + 224 X159 + 131 X16 + 673 X160
 + 173 X161 + 319 X162 + 123 X163 + 494 X164 + 363 X165 + 288 X166 + 383 X167
 + 237 X168 + 704 X169 + 320 X17 + 428 X170 + 389 X171 + 196 X172 + 595 X173
 + 345 X174 + 386 X175 + 245 X176 + 94 X177 + 285 X178 + 228 X179 + 60 X18
 + 294 X180 + 219 X181 + 354 X182 + 650 X183 + 595 X184 + 219 X185 + 477 X186
 + 659 X187 + 88 X188 + 105 X189 + 133 X19 + 305 X190 + 140 X191 + 361 X192
 + 781 X193 + 275 X194 + 97 X195 + 238 X196 + 151 X197 + 989 X198 + 206 X199
 + 479 X2 + 75 X20 + 401 X200 + 746 X201 + 414 X202 + 304 X203 + 286 X204
 + 620 X205 + 617 X206 + 476 X207 + 230 X21 + 62 X22 + 186 X23 + 389 X24
 + 103 X25 + 253 X26 + 426 X27 + 454 X28 + 123 X29 + 445 X3 + 624 X30
 + 546 X31 + 275 X32 + 202 X33 + 331 X34 + 159 X35 + 137 X36 + 482 X37
 + 179 X38 + 396 X39 + 458 X4 + 80 X40 + 189 X41 + 801 X42 + 238 X43 + 481 X44
 + 462 X45 + 312 X46 + 476 X47 + 303 X48 + 338 X49 + 196 X5 + 651 X50
 + 644 X51 + 1280 X52 + 745 X53 + 116 X54 + 779 X55 + 394 X56 + 782 X57
 + 1126 X58 + 546 X59 + 587 X6 + 456 X60 + 586 X61 + 425 X62 + 783 X63
 + 653 X64 + 298 X65 + 485 X66 + 516 X67 + 722 X68 + 313 X69 + 230 X7
 + 570 X70 + 511 X71 + 362 X72 + 564 X73 + 303 X74 + 755 X75 + 942 X76
 + 438 X77 + 495 X78 + 123 X79 + 273 X8 + 461 X80 + 414 X81 + 1040 X82
 + 637 X83 + 868 X84 + 793 X85 + 579 X86 + 493 X87 + 310 X88 + 288 X89
 + 213 X9 + 449 X90 + 975 X91 + 670 X92 + 750 X93 + 863 X94 + 567 X95
 + 712 X96 + 171 X97 + 387 X98 + 1046 X99
Subject To
amt100: X148 + X200 + X44 + X96 >= -831
amt101: X149 + X201 + X45 + X97 >= -831
amt102: X150 + X202 + X46 + X98 >= -831
amt103: X151 + X203 + X47 + X99 >= -831
amt104: X100 + X152 + X204 + X48 >= -831
amt105: X101 + X153 + X205 + X49 >= -831
amt106: X102 + X154 + X206 + X50 >= -831
amt107: X103 + X155 + X207 + X51 >= -831
amt108: X104 + X156 + X52 + Y208 >= -831
amt109: X105 + X157 + X53 + Y209 >= -831
amt110: X106 + X158 + X54 + Y210 >= -831
amt111: X107 + X159 + X55 + Y211 >= -831
amt112: X108 + X160 + X56 + Y212 >= -831
amt113: X109 + X161 + X57 + Y213 >= -831
amt114: X110 + X162 + X58 + Y214 >= -831
amt115: X111 + X163 + X59 + Y215 >= -831
amt116: X112 + X164 + X60 + Y216 >= -831
amt117: X113 + X165 + X61 + Y217 >= -831
amt118: X114 + X166 + X62 + Y218 >= -831
amt119: X115 + X167 + X63 + Y219 >= -831
amt120: X116 + X168 + X64 + Y220 >= -831
amt121: X117 + X169 + X65 + Y221 >= -831
amt122: X118 + X170 + X66 + Y222 >= -831
amt123: X119 + X171 + X67 + Y223 >= -831
amt124: X120 + X172 + X68 + Y224 >= -831
amt125: X121 + X173 + X69 + Y225 >= -831
amt126: X122 + X174 + X70 + Y226 >= -831
amt127: X123 + X175 + X71 + Y227 >= -831
amt128: X124 + X176 + X72 + Y228 >= -831
amt129: X125 + X177 + X73 + Y229 >= -831
amt130: X126 + X178 + X74 + Y230 >= -831
amt131: X127 + X179 + X75 + Y231 >= -831
amt132: X128 + X180 + X76 + Y232 >= -831
amt133: X129 + X181 + X77 + Y233 >= -831
amt134: X130 + X182 + X78 + Y234 >= -831
amt135: X131 + X183 + X79 + Y235 >= -831
amt136: X132 + X184 + X80 + Y236 >= -831
amt137: X133 + X185 + X81 + Y237 >= -831
amt138: X134 + X186 + X82 + Y238 >= -831
amt139: X135 + X187 + X83 + Y239 >= -831
amt140: X136 + X188 + X84 + Y240 >= -831
amt141: X137 + X189 + X85 + Y241 >= -831
amt142: X138 + X190 + X86 + Y242 >= -831
amt143: X139 + X191 + X87 + Y243 >= -831
amt144: X140 + X192 + X88 + Y244 >= -831
amt145: X141 + X193 + X89 + Y245 >= -831
amt146: X142 + X194 + X90 + Y246 >= -831
amt147: X143 + X195 + X91 + Y247 >= -831
amt148: X144 + X196 + X92 + Y248 >= -831
amt149: X145 + X197 + X93 + Y249 >= -831
amt150: X146 + X198 + X94 + Y250 >= -831
amt151: X147 + X199 + X95 + Y251 >= -831
amt152: X148 + X200 + X96 + Y252 >= -831
amt153: X149 + X201 + X97 + Y253 >= -831
amt154: X150 + X202 + X98 + Y254 >= -831
amt155: X151 + X203 + X99 + Y255 >= -831
amt156: X100 + X152 + X204 + Y256 >= -831
amt157: X101 + X153 + X205 + Y257 >= -831
amt158: X102 + X154 + X206 + Y258 >= -831
amt159: X103 + X155 + X207 + Y259 >= -831
amt160: X104 + X156 + Y208 + Y260 >= -831
amt161: X105 + X157 + Y209 + Y261 >= -831
amt162: X106 + X158 + Y210 + Y262 >= -831
amt163: X107 + X159 + Y211 + Y263 >= -831
amt164: X108 + X160 + Y212 + Y264 >= -831
amt165: X109 + X161 + Y213 + Y265 >= -831
amt166: X110 + X162 + Y214 + Y266 >= -831
amt167: X111 + X163 + Y215 + Y267 >= -831
amt168: X112 + X164 + Y216 + Y268 >= -831
amt169: X113 + X165 + Y217 + Y269 >= -831
amt170: X114 + X166 + Y218 + Y270 >= -831
amt171: X115 + X167 + Y219 + Y271 >= -831
amt172: X116 + X168 + Y220 + Y272 >= -831
amt173: X117 + X169 + Y221 + Y273 >= -831
amt174: X118 + X170 + Y222 + Y274 >= -831
amt175: X119 + X171 + Y223 + Y275 >= -831
amt176: X120 + X172 + Y224 + Y276 >= -831
amt177: X121 + X173 + Y225 + Y277 >= -831
amt178: X122 + X174 + Y226 + Y278 >= -831
amt179: X123 + X175 + Y227 + Y279 >= -831
amt180: X124 + X176 + Y228 + Y280 >= -831
amt181: X125 + X177 + Y229 + Y281 >= -831
amt182: X126 + X178 + Y230 + Y282 >= -831
amt183: X127 + X179 + Y231 + Y283 >= -831
amt184: X128 + X180 + Y232 + Y284 >= -831
amt185: X129 + X181 + Y233 + Y285 >= -831
amt186: X130 + X182 + Y234 + Y286 >= -831
amt187: X131 + X183 + Y235 + Y287 >= -831
amt188: X132 + X184 + Y236 + Y288 >= -831
amt189: X133 + X185 + Y237 + Y289 >= -831
amt190: X134 + X186 + Y238 + Y290 >= -831
amt191: X135 + X187 + Y239 + Y291 >= -831
amt192: X136 + X188 + Y240 + Y292 >= -831
amt193: X137 + X189 + Y241 + Y293 >= -831
amt194: X138 + X190 + Y242 + Y294 >= -831
amt195: X139 + X191 + Y243 + Y295 >= -831
amt196: X140 + X192 + Y244 + Y296 >= -831
amt197: X141 + X193 + Y245 + Y297 >= -831
amt198: X142 + X194 + Y246 + Y298 >= -831
amt199: X143 + X195 + Y247 + Y299 >= -831
amt200: X144 + X196 + Y248 + Y300 >= -831
amt201: X145 + X197 + Y249 + Y301 >= -831
amt202: X146 + X198 + Y250 + Y302 >= -831
amt203: X147 + X199 + Y251 + Y303 >= -831
amt204: X148 + X200 + Y252 + Y304 >= -831
amt205: X149 + X201 + Y253 + Y305 >= -831
amt206: X150 + X202 + Y254 + Y306 >= -831
amt207: X151 + X203 + Y255 + Y307 >= -831
amt208: X152 + X204 + Y256 + Y308 >= -831
amt209: X153 + X205 + Y257 + Y309 >= -831
amt210: X154 + X206 + Y258 + Y310 >= -831
amt211: X155 + X207 + Y259 + Y311 >= -831
amt212: X156 + Y208 + Y260 + Y312 >= -831
amt213: X157 + Y209 + Y261 + Y313 >= -831
amt214: X158 + Y210 + Y262 + Y314 >= -831
amt215: X159 + Y211 + Y263 + Y315 >= -831
amt216: X160 + Y212 + Y264 + Y316 >= -831
amt217: X161 + Y213 + Y265 + Y317 >= -831
amt218: X162 + Y214 + Y266 + Y318 >= -831
amt219: X163 + Y215 + Y267 + Y319 >= -831
amt220: X164 + Y216 + Y268 + Y320 >= -831
amt221: X165 + Y217 + Y269 + Y321 >= -831
amt222: X166 + Y218 + Y270 + Y322 >= -831
amt223: X167 + Y219 + Y271 + Y323 >= -831
amt224: X168 + Y220 + Y272 + Y324 >= -831
amt225: X169 + Y221 + Y273 + Y325 >= -831
amt226: X170 + Y222 + Y274 + Y326 >= -831
amt227: X171 + Y223 + Y275 + Y327 >= -831
amt228: X172 + Y224 + Y276 + Y328 >= -831
amt229: X173 + Y225 + Y277 + Y329 >= -831
amt230: X174 + Y226 + Y278 + Y330 >= -831
amt231: X175 + Y227 + Y279 + Y331 >= -831
amt232: X176 + Y228 + Y280 + Y332 >= -831
amt233: X177 + Y229 + Y281 + Y333 >= -831
amt234: X178 + Y230 + Y282 + Y334 >= -831
amt235: X179 + Y231 + Y283 + Y335 >= -831
amt236: X180 + Y232 + Y284 + Y336 >= -831
amt237: X181 + Y233 + Y285 + Y337 >= -831
amt238: X182 + Y234 + Y286 + Y338 >= -831
amt239: X183 + Y235 + Y287 + Y339 >= -831
amt240: X184 + Y236 + Y288 + Y340 >= -831
amt241: X185 + Y237 + Y289 + Y341 >= -831
amt242: X186 + Y238 + Y290 + Y342 >= -831
amt243: X187 + Y239 + Y291 + Y343 >= -831
amt244: X188 + Y240 + Y292 + Y344 >= -831
amt245: X189 + Y241 + Y293 + Y345 >= -831
amt246: X190 + Y242 + Y294 + Y346 >= -831
amt247: X191 + Y243 + Y295 + Y347 >= -831
amt248: X192 + Y244 + Y296 + Y348 >= -831
amt249: X193 + Y245 + Y297 + Y349 >= -831
amt250: X194 + Y246 + Y298 + Y350 >= -831
amt251: X195 + Y247 + Y299 + Y351 >= -831
amt252: X196 + Y248 + Y300 + Y352 >= -831
amt253: X197 + Y249 + Y301 + Y353 >= -831
amt254: X198 + Y250 + Y302 + Y354 >= -831
amt255: X199 + Y251 + Y303 + Y355 >= -831
amt256: X200 + Y252 + Y304 + Y356 >= -831
amt257: X201 + Y253 + Y305 + Y357 >= -831
amt258: X202 + Y254 + Y306 + Y358 >= -831
amt259: X203 + Y255 + Y307 + Y359 >= -831
amt260: X204 + Y256 + Y308 + Y360 >= -831
amt261: X205 + Y257 + Y309 + Y361 >= -831
amt262: X206 + Y258 + Y310 + Y362 >= -831
amt263: X207 + Y259 + Y311 + Y363 >= -831
amt56: X0 + X104 + X156 + X52 >= -831
amt57: X1 + X105 + X157 + X53 >= -831
amt58: X106 + X158 + X2 + X54 >= -831
amt59: X107 + X159 + X3 + X55 >= -831
amt60: X108 + X160 + X4 + X56 >= -831
amt61: X109 + X161 + X5 + X57 >= -831
amt62: X110 + X162 + X58 + X6 >= -831
amt63: X111 + X163 + X59 + X7 >= -831
amt64: X112 + X164 + X60 + X8 >= -831
amt65: X113 + X165 + X61 + X9 >= -831
amt66: X10 + X114 + X166 + X62 >= -831
amt67: X11 + X115 + X167 + X63 >= -831
amt68: X116 + X12 + X168 + X64 >= -831
amt69: X117 + X13 + X169 + X65 >= -831
amt70: X118 + X14 + X170 + X66 >= -831
amt71: X119 + X15 + X171 + X67 >= -831
amt72: X120 + X16 + X172 + X68 >= -831
amt73: X121 + X17 + X173 + X69 >= -831
amt74: X122 + X174 + X18 + X70 >= -831
amt75: X123 + X175 + X19 + X71 >= -831
amt76: X124 + X176 + X20 + X72 >= -831
amt77: X125 + X177 + X21 + X73 >= -831
amt78: X126 + X178 + X22 + X74 >= -831
amt79: X127 + X179 + X23 + X75 >= -831
amt80: X128 + X180 + X24 + X76 >= -831
amt81: X129 + X181 + X25 + X77 >= -831
amt82: X130 + X182 + X26 + X78 >= -831
amt83: X131 + X183 + X27 + X79 >= -831
amt84: X132 + X184 + X28 + X80 >= -831
amt85: X133 + X185 + X29 + X81 >= -831
amt86: X134 + X186 + X30 + X82 >= -831
amt87: X135 + X187 + X31 + X83 >= -831
amt88: X136 + X188 + X32 + X84 >= -831
amt89: X137 + X189 + X33 + X85 >= -831
amt90: X138 + X190 + X34 + X86 >= -831
amt91: X139 + X191 + X35 + X87 >= -831
amt92: X140 + X192 + X36 + X88 >= -831
amt93: X141 + X193 + X37 + X89 >= -831
amt94: X142 + X194 + X38 + X90 >= -831
amt95: X143 + X195 + X39 + X91 >= -831
amt96: X144 + X196 + X40 + X92 >= -831
amt97: X145 + X197 + X41 + X93 >= -831
amt98: X146 + X198 + X42 + X94 >= -831
amt99: X147 + X199 + X43 + X95 >= -831
ass10: X110 + X162 + X58 + X6 = 1
ass11: X111 + X163 + X59 + X7 = 1
ass12: X112 + X164 + X60 + X8 = 1
ass13: X113 + X165 + X61 + X9 = 1
ass14: X10 + X114 + X166 + X62 = 1
ass15: X11 + X115 + X167 + X63 = 1
ass16: X116 + X12 + X168 + X64 = 1
ass17: X117 + X13 + X169 + X65 = 1
ass18: X118 + X14 + X170 + X66 = 1
ass19: X119 + X15 + X171 + X67 = 1
ass20: X120 + X16 + X172 + X68 = 1
ass21: X121 + X17 + X173 + X69 = 1
ass22: X122 + X174 + X18 + X70 = 1
ass23: X123 + X175 + X19 + X71 = 1
ass24: X124 + X176 + X20 + X72 = 1
ass25: X125 + X177 + X21 + X73 = 1
ass26: X126 + X178 + X22 + X74 = 1
ass27: X127 + X179 + X23 + X75 = 1
ass28: X128 + X180 + X24 + X76 = 1
ass29: X129 + X181 + X25 + X77 = 1
ass30: X130 + X182 + X26 + X78 = 1
ass31: X131 + X183 + X27 + X79 = 1
ass32: X132 + X184 + X28 + X80 = 1
ass33: X133 + X185 + X29 + X81 = 1
ass34: X134 + X186 + X30 + X82 = 1
ass35: X135 + X187 + X31 + X83 = 1
ass36: X136 + X188 + X32 + X84 = 1
ass37: X137 + X189 + X33 + X85 = 1
ass38: X138 + X190 + X34 + X86 = 1
ass39: X139 + X191 + X35 + X87 = 1
ass4: X0 + X104 + X156 + X52 = 1
ass40: X140 + X192 + X36 + X88 = 1
ass41: X141 + X193 + X37 + X89 = 1
ass42: X142 + X194 + X38 + X90 = 1
ass43: X143 + X195 + X39 + X91 = 1
ass44: X144 + X196 + X40 + X92 = 1
ass45: X145 + X197 + X41 + X93 = 1
ass46: X146 + X198 + X42 + X94 = 1
ass47: X147 + X199 + X43 + X95 = 1
ass48: X148 + X200 + X44 + X96 = 1
ass49: X149 + X201 + X45 + X97 = 1
ass5: X1 + X105 + X157 + X53 = 1
ass50: X150 + X202 + X46 + X98 = 1
ass51: X151 + X203 + X47 + X99 = 1
ass52: X100 + X152 + X204 + X48 = 1
ass53: X101 + X153 + X205 + X49 = 1
ass54: X102 + X154 + X206 + X50 = 1
ass55: X103 + X155 + X207 + X51 = 1
ass6: X106 + X158 + X2 + X54 = 1
ass7: X107 + X159 + X3 + X55 = 1
ass8: X108 + X160 + X4 + X56 = 1
ass9: X109 + X161 + X5 + X57 = 1
cap0: 27 X0 + 23 X1 + 20 X10 + 15 X11 + 27 X12 + 26 X13 + 29 X14 + 23 X15
 + 21 X16 + 14 X17 + 18 X18 + 12 X19 + 28 X2 + 28 X20 + 30 X21 + 34 X22
 + 18 X23 + 17 X24 + 20 X25 + 17 X26 + 19 X27 + 11 X28 + 28 X29 + 23 X3
 + 11 X30 + 14 X31 + 16 X32 + 29 X33 + 12 X34 + 18 X35 + 29 X36 + 25 X37
 + 20 X38 + 26 X39 + 19 X4 + 14 X40 + 9 X41 + 17 X42 + 26 X43 + 14 X44
 + 17 X45 + 20 X46 + 5 X47 + 14 X48 + 21 X49 + 17 X5 + 32 X50 + 16 X51 + 19 X6
 + 14 X7 + 28 X8 + 17 X9 <= 120
cap1: 14 X100 + 21 X101 + 32 X102 + 16 X103 + 27 X52 + 23 X53 + 28 X54
 + 23 X55 + 19 X56 + 17 X57 + 19 X58 + 14 X59 + 28 X60 + 17 X61 + 20 X62
 + 15 X63 + 27 X64 + 26 X65 + 29 X66 + 23 X67 + 21 X68 + 14 X69 + 18 X70
 + 12 X71 + 28 X72 + 30 X73 + 34 X74 + 18 X75 + 17 X76 + 20 X77 + 17 X78
 + 19 X79 + 11 X80 + 28 X81 + 11 X82 + 14 X83 + 16 X84 + 29 X85 + 12 X86
 + 18 X87 + 29 X88 + 25 X89 + 20 X90 + 26 X91 + 14 X92 + 9 X93 + 17 X94
 + 26 X95 + 14 X96 + 17 X97 + 20 X98 + 5 X99 <= 1000
cap2: 27 X104 + 23 X105 + 28 X106 + 23 X107 + 19 X108 + 17 X109 + 19 X110
 + 14 X111 + 28 X112 + 17 X113 + 20 X114 + 15 X115 + 27 X116 + 26 X117
 + 29 X118 + 23 X119 + 21 X120 + 14 X121 + 18 X122 + 12 X123 + 28 X124
 + 30 X125 + 34 X126 + 18 X127 + 17 X128 + 20 X129 + 17 X130 + 19 X131
 + 11 X132 + 28 X133 + 11 X134 + 14 X135 + 16 X136 + 29 X137 + 12 X138
 + 18 X139 + 29 X140 + 25 X141 + 20 X142 + 26 X143 + 14 X144 + 9 X145
 + 17 X146 + 26 X147 + 14 X148 + 17 X149 + 20 X150 + 5 X151 + 14 X152
 + 21 X153 + 32 X154 + 16 X155 <= 300
cap3: 27 X156 + 23 X157 + 28 X158 + 23 X159 + 19 X160 + 17 X161 + 19 X162
 + 14 X163 + 28 X164 + 17 X165 + 20 X166 + 15 X167 + 27 X168 + 26 X169
 + 29 X170 + 23 X171 + 21 X172 + 14 X173 + 18 X174 + 12 X175 + 28 X176
 + 30 X177 + 34 X178 + 18 X179 + 17 X180 + 20 X181 + 17 X182 + 19 X183
 + 11 X184 + 28 X185 + 11 X186 + 14 X187 + 16 X188 + 29 X189 + 12 X190
 + 18 X191 + 29 X192 + 25 X193 + 20 X194 + 26 X195 + 14 X196 + 9 X197
 + 17 X198 + 26 X199 + 14 X200 + 17 X201 + 20 X202 + 5 X203 + 14 X204
 + 21 X205 + 32 X206 + 16 X207 <= 180
Bounds
 0 <= Y208 <= 50
 0 <= Y209 <= 50
 0 <= Y210 <= 50
 0 <= Y211 <= 50
 0 <= Y212 <= 50
 0 <= Y213 <= 50
 0 <= Y214 <= 50
 0 <= Y215 <= 50
 0 <= Y216 <= 50
 0 <= Y217 <= 50
 0 <= Y218 <= 50
 0 <= Y219 <= 50
 0 <= Y220 <= 50
 0 <= Y221 <= 50
 0 <= Y222 <= 50
 0 <= Y223 <= 50
 0 <= Y224 <= 50
 0 <= Y225 <= 50
 0 <= Y226 <= 50
 0 <= Y227 <= 50
 0 <= Y228 <= 50
 0 <= Y229 <= 50
 0 <= Y230 <= 50
 0 <= Y231 <= 50
 0 <= Y232 <= 50
 0 <= Y233 <= 50
 0 <= Y234 <= 50
 0 <= Y235 <= 50
 0 <= Y236 <= 50
 0 <= Y237 <= 50
 0 <= Y238 <= 50
 0 <= Y239 <= 50
 0 <= Y240 <= 50
 0 <= Y241 <= 50
 0 <= Y242 <= 50
 0 <= Y243 <= 50
 0 <= Y244 <= 50
 0 <= Y245 <= 50
 0 <= Y246 <= 50
 0 <= Y247 <= 50
 0 <= Y248 <= 50
 0 <= Y249 <= 50
 0 <= Y250 <= 50
 0 <= Y251 <= 50
 0 <= Y252 <= 50
 0 <= Y253 <= 50
 0 <= Y254 <= 50
 0 <= Y255 <= 50
 0 <= Y256 <= 50
 0 <= Y257 <= 50
 0 <= Y258 <= 50
 0 <= Y259 <= 50
 0 <= Y260 <= 50
 0 <= Y261 <= 50
 0 <= Y262 <= 50
 0 <= Y263 <= 50
 0 <= Y264 <= 50
 0 <= Y265 <= 50
 0 <= Y266 <= 50
 0 <= Y267 <= 50
 0 <= Y268 <= 50
 0 <= Y269 <= 50
 0 <= Y270 <= 50
 0 <= Y271 <= 50
 0 <= Y272 <= 50
 0 <= Y273 <= 50
 0 <= Y274 <= 50
 0 <= Y275 <= 50
 0 <= Y276 <= 50
 0 <= Y277 <= 50
 0 <= Y278 <= 50
 0 <= Y279 <= 50
 0 <= Y280 <= 50
 0 <= Y281 <= 50
 0 <= Y282 <= 50
 0 <= Y283 <= 50
 0 <= Y284 <= 50
 0 <= Y285 <= 50
 0 <= Y286 <= 50
 0 <= Y287 <= 50
 0 <= Y288 <= 50
 0 <= Y289 <= 50
 0 <= Y290 <= 50
 0 <= Y291 <= 50
 0 <= Y292 <= 50
 0 <= Y293 <= 50
 0 <= Y294 <= 50
 0 <= Y295 <= 50
 0 <= Y296 <= 50
 0 <= Y297 <= 50
 0 <= Y298 <= 50
 0 <= Y299 <= 50
 0 <= Y300 <= 50
 0 <= Y301 <= 50
 0 <= Y302 <= 50
 0 <= Y303 <= 50
 0 <= Y304 <= 50
 0 <= Y305 <= 50
 0 <= Y306 <= 50
 0 <= Y307 <= 50
 0 <= Y308 <= 50
 0 <= Y309 <= 50
 0 <= Y310 <= 50
 0 <= Y311 <= 50
 0 <= Y312 <= 50
 0 <= Y313 <= 50
 0 <= Y314 <= 50
 0 <= Y315 <= 50
 0 <= Y316 <= 50
 0 <= Y317 <= 50
 0 <= Y318 <= 50
 0 <= Y319 <= 50
 0 <= Y320 <= 50
 0 <= Y321 <= 50
 0 <= Y322 <= 50
 0 <= Y323 <= 50
 0 <= Y324 <= 50
 0 <= Y325 <= 50
 0 <= Y326 <= 50
 0 <= Y327 <= 50
 0 <= Y328 <= 50
 0 <= Y329 <= 50
 0 <= Y330 <= 50
 0 <= Y331 <= 50
 0 <= Y332 <= 50
 0 <= Y333 <= 50
 0 <= Y334 <= 50
 0 <= Y335 <= 50
 0 <= Y336 <= 50
 0 <= Y337 <= 50
 0 <= Y338 <= 50
 0 <= Y339 <= 50
 0 <= Y340 <= 50
 0 <= Y341 <= 50
 0 <= Y342 <= 50
 0 <= Y343 <= 50
 0 <= Y344 <= 50
 0 <= Y345 <= 50
 0 <= Y346 <= 50
 0 <= Y347 <= 50
 0 <= Y348 <= 50
 0 <= Y349 <= 50
 0 <= Y350 <= 50
 0 <= Y351 <= 50
 0 <= Y352 <= 50
 0 <= Y353 <= 50
 0 <= Y354 <= 50
 0 <= Y355 <= 50
 0 <= Y356 <= 50
 0 <= Y357 <= 50
 0 <= Y358 <= 50
 0 <= Y359 <= 50
 0 <= Y360 <= 50
 0 <= Y361 <= 50
 0 <= Y362 <= 50
 0 <= Y363 <= 50
Generals
Y208
Y209
Y210
Y211
Y212
Y213
Y214
Y215
Y216
Y217
Y218
Y219
Y220
Y221
Y222
Y223
Y224
Y225
Y226
Y227
Y228
Y229
Y230
Y231
Y232
Y233
Y234
Y235
Y236
Y237
Y238
Y239
Y240
Y241
Y242
Y243
Y244
Y245
Y246
Y247
Y248
Y249
Y250
Y251
Y252
Y253
Y254
Y255
Y256
Y257
Y258
Y259
Y260
Y261
Y262
Y263
Y264
Y265
Y266
Y267
Y268
Y269
Y270
Y271
Y272
Y273
Y274
Y275
Y276
Y277
Y278
Y279
Y280
Y281
Y282
Y283
Y284
Y285
Y286
Y287
Y288
Y289
Y290
Y291
Y292
Y293
Y294
Y295
Y296
Y297
Y298
Y299
Y300
Y301
Y302
Y303
Y304
Y305
Y306
Y307
Y308
Y309
Y310
Y311
Y312
Y313
Y314
Y315
Y316
Y317
Y318
Y319
Y320
Y321
Y322
Y323
Y324
Y325
Y326
Y327
Y328
Y329
Y330
Y331
Y332
Y333
Y334
Y335
Y336
Y337
Y338
Y339
Y340
Y341
Y342
Y343
Y344
Y345
Y346
Y347
Y348
Y349
Y350
Y351
Y352
Y353
Y354
Y355
Y356
Y357
Y358
Y359
Y360
Y361
Y362
Y363
Binaries
X0
X1
X10
X100
X101
X102
X103
X104
X105
X106
X107
X108
X109
X11
X110
X111
X112
X113
X114
X115
X116
X117
X118
X119
X12
X120
X121
X122
X123
X124
X125
X126
X127
X128
X129
X13
X130
X131
X132
X133
X134
X135
X136
X137
X138
X139
X14
X140
X141
X142
X143
X144
X145
X146
X147
X148
X149
X15
X150
X151
X152
X153
X154
X155
X156
X157
X158
X159
X16
X160
X161
X162
X163
X164
X165
X166
X167
X168
X169
X17
X170
X171
X172
X173
X174
X175
X176
X177
X178
X179
X18
X180
X181
X182
X183
X184
X185
X186
X187
X188
X189
X19
X190
X191
X192
X193
X194
X195
X196
X197
X198
X199
X2
X20
X200
X201
X202
X203
X204
X205
X206
X207
X21
X22
X23
X24
X25
X26
X27
X28
X29
X3
X30
X31
X32
X33
X34
X35
X36
X37
X38
X39
X4
X40
X41
X42
X43
X44
X45
X46
X47
X48
X49
X5
X50
X51
X52
X53
X54
X55
X56
X57
X58
X59
X6
X60
X61
X62
X63
X64
X65
X66
X67
X68
X69
X7
X70
X71
X72
X73
X74
X75
X76
X77
X78
X79
X8
X80
X81
X82
X83
X84
X85
X86
X87
X88
X89
X9
X90
X91
X92
X93
X94
X95
X96
X97
X98
X99
End
